p tw 61 68
1 2
2 3
11 12
11 46
12 57
13 14
14 15
14 17
15 16
16 60
17 18
18 19
19 20
20 21
20 55
3 4
21 22
22 23
23 24
24 25
25 26
26 27
27 28
28 29
29 30
30 31
4 5
31 32
32 33
33 34
33 38
34 35
35 36
36 37
37 42
38 39
39 40
40 41
5 6
41 42
42 43
43 44
44 45
45 46
46 47
47 48
47 52
48 49
49 50
49 54
50 51
6 7
51 52
51 54
52 53
53 60
54 55
55 56
56 57
57 58
58 59
59 60
60 61
7 8
8 9
9 13
9 10
10 11
